c Problem Statistics
c Number of variables: 100
c Number of clauses: 250
c Parse time (sec.) : 0.00
c
p cnf 100 71
-53 0
-73 0
-68 0
-51 0
-78 0
-100 0
83 0
16 0
37 0
18 0
34 0
-93 0
61 0
28 0
45 0
35 0
40 0
72 0
48 0
5 0
39 0
43 0
90 0
46 0
36 0
85 0
75 0
60 0
58 0
64 0
66 0
70 0
76 0
80 0
81 0
84 0
96 0
52 0
55 0
57 0
59 0
62 0
63 0
65 0
67 0
69 0
71 0
74 0
82 0
87 0
88 0
89 0
91 0
92 0
94 0
95 0
97 0
98 0
99 0
54 0
56 0
77 0
79 0
86 0
4 38 29 6 0
7 20 13 42 0
10 23 33 0
1 27 32 0
3 9 44 0
2 29 0
24 13 0
c restarts              : 50
c conflicts             : 0              (-nan /sec)
c decisions             : 1534           (0.00 % random) (inf /sec)
c propagations          : 7771           (inf /sec)
c conflict literals     : 0              (-nan % deleted)
c CPU time (sec.): 0
